(set-info :smt-lib-version 2.6)
(set-logic QF_DT)
(set-info :source |
Generated by: Federico Mora
Generated on: 2023-07-20
Generator: z3 Python bindings via UCLID5 Python API
Application: Blocksworld Automated Reasoning Problems.
Target solvers: Algaroba, cvc5, Z3, Princess
Publications: Shah, Mora and Seshia. An Eager Satisfiability Modulo Theories Solver for Algebraic Datatypes. AAAI ’24 |)
(set-info :license "https://creativecommons.org/licenses/by/4.0/")
(set-info :category "industrial")
(set-info :status unsat) 
(declare-datatypes ((Enum_A_B_C_D_E_F_G_H_I_J_K_L_M_N_O_P_Q_R_S_T_U_V 0)) (((A) (B) (C) (D) (E) (F) (G) (H) (I) (J) (K) (L) (M) (N) (O) (P) (Q) (R) (S) (T) (U) (V))))
(declare-datatypes ((Tower 0)) (((stack (top Enum_A_B_C_D_E_F_G_H_I_J_K_L_M_N_O_P_Q_R_S_T_U_V) (rest Tower)) (empty))))
(declare-datatypes ((Record_left_center_right 0)) (((Record_left_center_right (left Tower) (center Tower) (right Tower)))))
(declare-datatypes ((Enum_left-to-center_left-to-right_center-to-left_center-to-right_right-to-left_right-to-center 0)) (((left-to-center) (left-to-right) (center-to-left) (center-to-right) (right-to-left) (right-to-center))))
(declare-fun s () Record_left_center_right)
(declare-fun s_tmp () Record_left_center_right)
(declare-fun c () Enum_left-to-center_left-to-right_center-to-left_center-to-right_right-to-left_right-to-center)
(declare-fun c_tmp () Enum_left-to-center_left-to-right_center-to-left_center-to-right_right-to-left_right-to-center)
(declare-fun s_tmp_ () Record_left_center_right)
(declare-fun s_tmp__ () Record_left_center_right)
(declare-fun s_tmp___ () Record_left_center_right)
(declare-fun c!0 () Enum_left-to-center_left-to-right_center-to-left_center-to-right_right-to-left_right-to-center)
(declare-fun c_tmp____ () Enum_left-to-center_left-to-right_center-to-left_center-to-right_right-to-left_right-to-center)
(declare-fun s_ () Record_left_center_right)
(declare-fun c_ () Enum_left-to-center_left-to-right_center-to-left_center-to-right_right-to-left_right-to-center)
(declare-fun c!1 () Enum_left-to-center_left-to-right_center-to-left_center-to-right_right-to-left_right-to-center)
(declare-fun c__ () Enum_left-to-center_left-to-right_center-to-left_center-to-right_right-to-left_right-to-center)
(declare-fun s__ () Record_left_center_right)
(declare-fun c!2 () Enum_left-to-center_left-to-right_center-to-left_center-to-right_right-to-left_right-to-center)
(declare-fun c___ () Enum_left-to-center_left-to-right_center-to-left_center-to-right_right-to-left_right-to-center)
(declare-fun s___ () Record_left_center_right)
(declare-fun c!3 () Enum_left-to-center_left-to-right_center-to-left_center-to-right_right-to-left_right-to-center)
(declare-fun c____ () Enum_left-to-center_left-to-right_center-to-left_center-to-right_right-to-left_right-to-center)
(declare-fun s____ () Record_left_center_right)
(declare-fun c!4 () Enum_left-to-center_left-to-right_center-to-left_center-to-right_right-to-left_right-to-center)
(declare-fun c_____ () Enum_left-to-center_left-to-right_center-to-left_center-to-right_right-to-left_right-to-center)
(declare-fun s_____ () Record_left_center_right)
(declare-fun c!5 () Enum_left-to-center_left-to-right_center-to-left_center-to-right_right-to-left_right-to-center)
(declare-fun c______ () Enum_left-to-center_left-to-right_center-to-left_center-to-right_right-to-left_right-to-center)
(declare-fun s______ () Record_left_center_right)
(declare-fun c!6 () Enum_left-to-center_left-to-right_center-to-left_center-to-right_right-to-left_right-to-center)
(declare-fun c_______ () Enum_left-to-center_left-to-right_center-to-left_center-to-right_right-to-left_right-to-center)
(declare-fun s_______ () Record_left_center_right)
(declare-fun c!7 () Enum_left-to-center_left-to-right_center-to-left_center-to-right_right-to-left_right-to-center)
(declare-fun c________ () Enum_left-to-center_left-to-right_center-to-left_center-to-right_right-to-left_right-to-center)
(declare-fun s________ () Record_left_center_right)
(declare-fun c!8 () Enum_left-to-center_left-to-right_center-to-left_center-to-right_right-to-left_right-to-center)
(declare-fun c_________ () Enum_left-to-center_left-to-right_center-to-left_center-to-right_right-to-left_right-to-center)
(declare-fun s_________ () Record_left_center_right)
(assert
 (= s_tmp s))
(assert
 (= c_tmp c))
(assert
 (let ((?x34 (stack H empty)))
 (let ((?x35 (stack C ?x34)))
 (let ((?x36 (stack P ?x35)))
 (let ((?x124 (left s_tmp_)))
 (= ?x124 ?x36))))))
(assert
 (let ((?x37 (stack J empty)))
 (let ((?x127 (center s_tmp__)))
 (= ?x127 ?x37))))
(assert
 (let ((?x38 (stack A empty)))
 (let ((?x39 (stack B ?x38)))
 (let ((?x40 (stack D ?x39)))
 (let ((?x41 (stack E ?x40)))
 (let ((?x42 (stack F ?x41)))
 (let ((?x43 (stack G ?x42)))
 (let ((?x44 (stack I ?x43)))
 (let ((?x45 (stack K ?x44)))
 (let ((?x46 (stack L ?x45)))
 (let ((?x47 (stack M ?x46)))
 (let ((?x48 (stack N ?x47)))
 (let ((?x49 (stack O ?x48)))
 (let ((?x50 (stack Q ?x49)))
 (let ((?x51 (stack R ?x50)))
 (let ((?x52 (stack S ?x51)))
 (let ((?x53 (stack T ?x52)))
 (let ((?x54 (stack U ?x53)))
 (let ((?x55 (stack V ?x54)))
 (let ((?x130 (right s_tmp___)))
 (= ?x130 ?x55)))))))))))))))))))))
(assert
 (= c_tmp____ c!0))
(assert
 (= s_ s_tmp___))
(assert
 (= c_ c_tmp____))
(assert
 (let ((?x157 (left s_tmp__)))
 (= (left s_tmp___) ?x157)))
(assert
 (let ((?x127 (center s_tmp__)))
 (= (center s_tmp___) ?x127)))
(assert
 (let ((?x161 (center s_tmp_)))
 (= ?x161 (center s_tmp))))
(assert
 (let ((?x164 (right s_tmp_)))
 (= ?x164 (right s_tmp))))
(assert
 (let ((?x124 (left s_tmp_)))
 (let ((?x157 (left s_tmp__)))
 (= ?x157 ?x124))))
(assert
 (let ((?x164 (right s_tmp_)))
 (let ((?x168 (right s_tmp__)))
 (= ?x168 ?x164))))
(assert
 (= c__ c!1))
(assert
 (let ((?x101 (left s_)))
 (let ((?x278 (left s__)))
 (let (($x323 (= ?x278 ?x101)))
 (let ((?x104 (right s_)))
 (let (($x281 ((_ is stack ) ?x104)))
 (let (($x296 (= c_ right-to-left)))
 (let (($x297 (and $x296 $x281)))
 (let ((?x106 (center s_)))
 (let (($x298 ((_ is stack ) ?x106)))
 (let (($x299 (= c_ center-to-right)))
 (let (($x300 (and $x299 $x298)))
 (let (($x301 (= c_ center-to-left)))
 (let (($x302 (and $x301 $x298)))
 (let (($x332 (ite $x302 (= ?x278 (stack (top ?x106) ?x101)) (ite $x300 $x323 (ite $x297 (= ?x278 (stack (top ?x104) ?x101)) $x323)))))
 (let (($x310 (= ?x278 (rest ?x101))))
 (let (($x303 ((_ is stack ) ?x101)))
 (let (($x304 (= c_ left-to-right)))
 (let (($x305 (and $x304 $x303)))
 (let (($x306 (= c_ left-to-center)))
 (let (($x307 (and $x306 $x303)))
 (ite $x307 $x310 (ite $x305 $x310 $x332)))))))))))))))))))))))
(assert
 (let ((?x104 (right s_)))
 (let ((?x286 (right s__)))
 (let (($x319 (= ?x286 ?x104)))
 (let (($x316 (= ?x286 (rest ?x104))))
 (let (($x281 ((_ is stack ) ?x104)))
 (let (($x294 (= c_ right-to-center)))
 (let (($x295 (and $x294 $x281)))
 (let (($x296 (= c_ right-to-left)))
 (let (($x297 (and $x296 $x281)))
 (let ((?x106 (center s_)))
 (let (($x298 ((_ is stack ) ?x106)))
 (let (($x299 (= c_ center-to-right)))
 (let (($x300 (and $x299 $x298)))
 (let (($x329 (ite $x300 (= ?x286 (stack (top ?x106) ?x104)) (ite $x297 $x316 (ite $x295 $x316 $x319)))))
 (let (($x301 (= c_ center-to-left)))
 (let (($x302 (and $x301 $x298)))
 (let ((?x101 (left s_)))
 (let (($x303 ((_ is stack ) ?x101)))
 (let (($x304 (= c_ left-to-right)))
 (let (($x305 (and $x304 $x303)))
 (let (($x306 (= c_ left-to-center)))
 (let (($x307 (and $x306 $x303)))
 (ite $x307 (= ?x286 (stack (top ?x101) ?x104)) (ite $x305 $x319 (ite $x302 $x319 $x329))))))))))))))))))))))))))
(assert
 (let ((?x106 (center s_)))
 (let ((?x292 (center s__)))
 (let (($x321 (= ?x292 ?x106)))
 (let ((?x104 (right s_)))
 (let (($x281 ((_ is stack ) ?x104)))
 (let (($x294 (= c_ right-to-center)))
 (let (($x295 (and $x294 $x281)))
 (let (($x296 (= c_ right-to-left)))
 (let (($x297 (and $x296 $x281)))
 (let (($x313 (= ?x292 (rest ?x106))))
 (let (($x298 ((_ is stack ) ?x106)))
 (let (($x299 (= c_ center-to-right)))
 (let (($x300 (and $x299 $x298)))
 (let (($x328 (ite $x300 $x313 (ite $x297 $x321 (ite $x295 (= ?x292 (stack (top ?x104) ?x106)) $x321)))))
 (let (($x301 (= c_ center-to-left)))
 (let (($x302 (and $x301 $x298)))
 (let ((?x101 (left s_)))
 (let (($x303 ((_ is stack ) ?x101)))
 (let (($x304 (= c_ left-to-right)))
 (let (($x305 (and $x304 $x303)))
 (let (($x306 (= c_ left-to-center)))
 (let (($x307 (and $x306 $x303)))
 (ite $x307 $x321 (ite $x305 (= ?x292 (stack (top ?x101) ?x106)) (ite $x302 $x313 $x328))))))))))))))))))))))))))
(assert
 (= c___ c!2))
(assert
 (let ((?x278 (left s__)))
 (let ((?x171 (left s___)))
 (let (($x452 (= ?x171 ?x278)))
 (let ((?x286 (right s__)))
 (let ((?x419 (top ?x286)))
 (let ((?x420 (stack ?x419 ?x278)))
 (let (($x446 (= ?x171 ?x420)))
 (let (($x422 ((_ is stack ) ?x286)))
 (let (($x425 (= c__ right-to-left)))
 (let (($x426 (and $x425 $x422)))
 (let ((?x292 (center s__)))
 (let (($x427 ((_ is stack ) ?x292)))
 (let (($x428 (= c__ center-to-right)))
 (let (($x429 (and $x428 $x427)))
 (let ((?x415 (top ?x292)))
 (let ((?x416 (stack ?x415 ?x278)))
 (let (($x443 (= ?x171 ?x416)))
 (let (($x430 (= c__ center-to-left)))
 (let (($x431 (and $x430 $x427)))
 (let ((?x173 (rest ?x278)))
 (let (($x439 (= ?x171 ?x173)))
 (let (($x432 ((_ is stack ) ?x278)))
 (let (($x433 (= c__ left-to-right)))
 (let (($x434 (and $x433 $x432)))
 (let (($x435 (= c__ left-to-center)))
 (let (($x436 (and $x435 $x432)))
 (ite $x436 $x439 (ite $x434 $x439 (ite $x431 $x443 (ite $x429 $x452 (ite $x426 $x446 $x452))))))))))))))))))))))))))))))))
(assert
 (let ((?x286 (right s__)))
 (let ((?x174 (right s___)))
 (let (($x448 (= ?x174 ?x286)))
 (let ((?x418 (rest ?x286)))
 (let (($x445 (= ?x174 ?x418)))
 (let (($x422 ((_ is stack ) ?x286)))
 (let (($x423 (= c__ right-to-center)))
 (let (($x424 (and $x423 $x422)))
 (let (($x425 (= c__ right-to-left)))
 (let (($x426 (and $x425 $x422)))
 (let ((?x292 (center s__)))
 (let ((?x415 (top ?x292)))
 (let ((?x417 (stack ?x415 ?x286)))
 (let (($x444 (= ?x174 ?x417)))
 (let (($x427 ((_ is stack ) ?x292)))
 (let (($x428 (= c__ center-to-right)))
 (let (($x429 (and $x428 $x427)))
 (let (($x430 (= c__ center-to-left)))
 (let (($x431 (and $x430 $x427)))
 (let ((?x278 (left s__)))
 (let (($x432 ((_ is stack ) ?x278)))
 (let (($x433 (= c__ left-to-right)))
 (let (($x434 (and $x433 $x432)))
 (let (($x465 (ite $x434 $x448 (ite $x431 $x448 (ite $x429 $x444 (ite $x426 $x445 (ite $x424 $x445 $x448)))))))
 (let ((?x275 (top ?x278)))
 (let ((?x411 (stack ?x275 ?x286)))
 (let (($x440 (= ?x174 ?x411)))
 (let (($x435 (= c__ left-to-center)))
 (let (($x436 (and $x435 $x432)))
 (ite $x436 $x440 $x465)))))))))))))))))))))))))))))))
(assert
 (let ((?x292 (center s__)))
 (let ((?x412 (center s___)))
 (let (($x450 (= ?x412 ?x292)))
 (let ((?x286 (right s__)))
 (let ((?x419 (top ?x286)))
 (let ((?x421 (stack ?x419 ?x292)))
 (let (($x447 (= ?x412 ?x421)))
 (let (($x422 ((_ is stack ) ?x286)))
 (let (($x423 (= c__ right-to-center)))
 (let (($x424 (and $x423 $x422)))
 (let (($x425 (= c__ right-to-left)))
 (let (($x426 (and $x425 $x422)))
 (let ((?x414 (rest ?x292)))
 (let (($x442 (= ?x412 ?x414)))
 (let (($x427 ((_ is stack ) ?x292)))
 (let (($x428 (= c__ center-to-right)))
 (let (($x429 (and $x428 $x427)))
 (let (($x430 (= c__ center-to-left)))
 (let (($x431 (and $x430 $x427)))
 (let ((?x278 (left s__)))
 (let ((?x275 (top ?x278)))
 (let ((?x413 (stack ?x275 ?x292)))
 (let (($x441 (= ?x412 ?x413)))
 (let (($x432 ((_ is stack ) ?x278)))
 (let (($x433 (= c__ left-to-right)))
 (let (($x434 (and $x433 $x432)))
 (let (($x464 (ite $x434 $x441 (ite $x431 $x442 (ite $x429 $x442 (ite $x426 $x450 (ite $x424 $x447 $x450)))))))
 (let (($x435 (= c__ left-to-center)))
 (let (($x436 (and $x435 $x432)))
 (ite $x436 $x450 $x464)))))))))))))))))))))))))))))))
(assert
 (= c____ c!3))
(assert
 (let ((?x171 (left s___)))
 (let ((?x339 (left s____)))
 (let (($x590 (= ?x339 ?x171)))
 (let ((?x174 (right s___)))
 (let ((?x557 (top ?x174)))
 (let ((?x558 (stack ?x557 ?x171)))
 (let (($x584 (= ?x339 ?x558)))
 (let (($x560 ((_ is stack ) ?x174)))
 (let (($x563 (= c___ right-to-left)))
 (let (($x564 (and $x563 $x560)))
 (let ((?x412 (center s___)))
 (let (($x565 ((_ is stack ) ?x412)))
 (let (($x566 (= c___ center-to-right)))
 (let (($x567 (and $x566 $x565)))
 (let ((?x553 (top ?x412)))
 (let ((?x554 (stack ?x553 ?x171)))
 (let (($x581 (= ?x339 ?x554)))
 (let (($x568 (= c___ center-to-left)))
 (let (($x569 (and $x568 $x565)))
 (let ((?x383 (rest ?x171)))
 (let (($x577 (= ?x339 ?x383)))
 (let (($x570 ((_ is stack ) ?x171)))
 (let (($x571 (= c___ left-to-right)))
 (let (($x572 (and $x571 $x570)))
 (let (($x573 (= c___ left-to-center)))
 (let (($x574 (and $x573 $x570)))
 (ite $x574 $x577 (ite $x572 $x577 (ite $x569 $x581 (ite $x567 $x590 (ite $x564 $x584 $x590))))))))))))))))))))))))))))))))
(assert
 (let ((?x174 (right s___)))
 (let ((?x384 (right s____)))
 (let (($x586 (= ?x384 ?x174)))
 (let ((?x556 (rest ?x174)))
 (let (($x583 (= ?x384 ?x556)))
 (let (($x560 ((_ is stack ) ?x174)))
 (let (($x561 (= c___ right-to-center)))
 (let (($x562 (and $x561 $x560)))
 (let (($x563 (= c___ right-to-left)))
 (let (($x564 (and $x563 $x560)))
 (let ((?x412 (center s___)))
 (let ((?x553 (top ?x412)))
 (let ((?x555 (stack ?x553 ?x174)))
 (let (($x582 (= ?x384 ?x555)))
 (let (($x565 ((_ is stack ) ?x412)))
 (let (($x566 (= c___ center-to-right)))
 (let (($x567 (and $x566 $x565)))
 (let (($x568 (= c___ center-to-left)))
 (let (($x569 (and $x568 $x565)))
 (let ((?x171 (left s___)))
 (let (($x570 ((_ is stack ) ?x171)))
 (let (($x571 (= c___ left-to-right)))
 (let (($x572 (and $x571 $x570)))
 (let (($x603 (ite $x572 $x586 (ite $x569 $x586 (ite $x567 $x582 (ite $x564 $x583 (ite $x562 $x583 $x586)))))))
 (let ((?x410 (top ?x171)))
 (let ((?x549 (stack ?x410 ?x174)))
 (let (($x578 (= ?x384 ?x549)))
 (let (($x573 (= c___ left-to-center)))
 (let (($x574 (and $x573 $x570)))
 (ite $x574 $x578 $x603)))))))))))))))))))))))))))))))
(assert
 (let ((?x412 (center s___)))
 (let ((?x550 (center s____)))
 (let (($x588 (= ?x550 ?x412)))
 (let ((?x174 (right s___)))
 (let ((?x557 (top ?x174)))
 (let ((?x559 (stack ?x557 ?x412)))
 (let (($x585 (= ?x550 ?x559)))
 (let (($x560 ((_ is stack ) ?x174)))
 (let (($x561 (= c___ right-to-center)))
 (let (($x562 (and $x561 $x560)))
 (let (($x563 (= c___ right-to-left)))
 (let (($x564 (and $x563 $x560)))
 (let ((?x552 (rest ?x412)))
 (let (($x580 (= ?x550 ?x552)))
 (let (($x565 ((_ is stack ) ?x412)))
 (let (($x566 (= c___ center-to-right)))
 (let (($x567 (and $x566 $x565)))
 (let (($x568 (= c___ center-to-left)))
 (let (($x569 (and $x568 $x565)))
 (let ((?x171 (left s___)))
 (let ((?x410 (top ?x171)))
 (let ((?x551 (stack ?x410 ?x412)))
 (let (($x579 (= ?x550 ?x551)))
 (let (($x570 ((_ is stack ) ?x171)))
 (let (($x571 (= c___ left-to-right)))
 (let (($x572 (and $x571 $x570)))
 (let (($x602 (ite $x572 $x579 (ite $x569 $x580 (ite $x567 $x580 (ite $x564 $x588 (ite $x562 $x585 $x588)))))))
 (let (($x573 (= c___ left-to-center)))
 (let (($x574 (and $x573 $x570)))
 (ite $x574 $x588 $x602)))))))))))))))))))))))))))))))
(assert
 (= c_____ c!4))
(assert
 (let ((?x339 (left s____)))
 (let ((?x468 (left s_____)))
 (let (($x728 (= ?x468 ?x339)))
 (let ((?x384 (right s____)))
 (let ((?x695 (top ?x384)))
 (let ((?x696 (stack ?x695 ?x339)))
 (let (($x722 (= ?x468 ?x696)))
 (let (($x698 ((_ is stack ) ?x384)))
 (let (($x701 (= c____ right-to-left)))
 (let (($x702 (and $x701 $x698)))
 (let ((?x550 (center s____)))
 (let (($x703 ((_ is stack ) ?x550)))
 (let (($x704 (= c____ center-to-right)))
 (let (($x705 (and $x704 $x703)))
 (let ((?x691 (top ?x550)))
 (let ((?x692 (stack ?x691 ?x339)))
 (let (($x719 (= ?x468 ?x692)))
 (let (($x706 (= c____ center-to-left)))
 (let (($x707 (and $x706 $x703)))
 (let ((?x501 (rest ?x339)))
 (let (($x715 (= ?x468 ?x501)))
 (let (($x708 ((_ is stack ) ?x339)))
 (let (($x709 (= c____ left-to-right)))
 (let (($x710 (and $x709 $x708)))
 (let (($x711 (= c____ left-to-center)))
 (let (($x712 (and $x711 $x708)))
 (ite $x712 $x715 (ite $x710 $x715 (ite $x707 $x719 (ite $x705 $x728 (ite $x702 $x722 $x728))))))))))))))))))))))))))))))))
(assert
 (let ((?x384 (right s____)))
 (let ((?x502 (right s_____)))
 (let (($x724 (= ?x502 ?x384)))
 (let ((?x694 (rest ?x384)))
 (let (($x721 (= ?x502 ?x694)))
 (let (($x698 ((_ is stack ) ?x384)))
 (let (($x699 (= c____ right-to-center)))
 (let (($x700 (and $x699 $x698)))
 (let (($x701 (= c____ right-to-left)))
 (let (($x702 (and $x701 $x698)))
 (let ((?x550 (center s____)))
 (let ((?x691 (top ?x550)))
 (let ((?x693 (stack ?x691 ?x384)))
 (let (($x720 (= ?x502 ?x693)))
 (let (($x703 ((_ is stack ) ?x550)))
 (let (($x704 (= c____ center-to-right)))
 (let (($x705 (and $x704 $x703)))
 (let (($x706 (= c____ center-to-left)))
 (let (($x707 (and $x706 $x703)))
 (let ((?x339 (left s____)))
 (let (($x708 ((_ is stack ) ?x339)))
 (let (($x709 (= c____ left-to-right)))
 (let (($x710 (and $x709 $x708)))
 (let (($x741 (ite $x710 $x724 (ite $x707 $x724 (ite $x705 $x720 (ite $x702 $x721 (ite $x700 $x721 $x724)))))))
 (let ((?x548 (top ?x339)))
 (let ((?x687 (stack ?x548 ?x384)))
 (let (($x716 (= ?x502 ?x687)))
 (let (($x711 (= c____ left-to-center)))
 (let (($x712 (and $x711 $x708)))
 (ite $x712 $x716 $x741)))))))))))))))))))))))))))))))
(assert
 (let ((?x550 (center s____)))
 (let ((?x688 (center s_____)))
 (let (($x726 (= ?x688 ?x550)))
 (let ((?x384 (right s____)))
 (let ((?x695 (top ?x384)))
 (let ((?x697 (stack ?x695 ?x550)))
 (let (($x723 (= ?x688 ?x697)))
 (let (($x698 ((_ is stack ) ?x384)))
 (let (($x699 (= c____ right-to-center)))
 (let (($x700 (and $x699 $x698)))
 (let (($x701 (= c____ right-to-left)))
 (let (($x702 (and $x701 $x698)))
 (let ((?x690 (rest ?x550)))
 (let (($x718 (= ?x688 ?x690)))
 (let (($x703 ((_ is stack ) ?x550)))
 (let (($x704 (= c____ center-to-right)))
 (let (($x705 (and $x704 $x703)))
 (let (($x706 (= c____ center-to-left)))
 (let (($x707 (and $x706 $x703)))
 (let ((?x339 (left s____)))
 (let ((?x548 (top ?x339)))
 (let ((?x689 (stack ?x548 ?x550)))
 (let (($x717 (= ?x688 ?x689)))
 (let (($x708 ((_ is stack ) ?x339)))
 (let (($x709 (= c____ left-to-right)))
 (let (($x710 (and $x709 $x708)))
 (let (($x740 (ite $x710 $x717 (ite $x707 $x718 (ite $x705 $x718 (ite $x702 $x726 (ite $x700 $x723 $x726)))))))
 (let (($x711 (= c____ left-to-center)))
 (let (($x712 (and $x711 $x708)))
 (ite $x712 $x726 $x740)))))))))))))))))))))))))))))))
(assert
 (= c______ c!5))
(assert
 (let ((?x468 (left s_____)))
 (let ((?x606 (left s______)))
 (let (($x866 (= ?x606 ?x468)))
 (let ((?x502 (right s_____)))
 (let ((?x833 (top ?x502)))
 (let ((?x834 (stack ?x833 ?x468)))
 (let (($x860 (= ?x606 ?x834)))
 (let (($x836 ((_ is stack ) ?x502)))
 (let (($x839 (= c_____ right-to-left)))
 (let (($x840 (and $x839 $x836)))
 (let ((?x688 (center s_____)))
 (let (($x841 ((_ is stack ) ?x688)))
 (let (($x842 (= c_____ center-to-right)))
 (let (($x843 (and $x842 $x841)))
 (let ((?x829 (top ?x688)))
 (let ((?x830 (stack ?x829 ?x468)))
 (let (($x857 (= ?x606 ?x830)))
 (let (($x844 (= c_____ center-to-left)))
 (let (($x845 (and $x844 $x841)))
 (let ((?x639 (rest ?x468)))
 (let (($x853 (= ?x606 ?x639)))
 (let (($x846 ((_ is stack ) ?x468)))
 (let (($x847 (= c_____ left-to-right)))
 (let (($x848 (and $x847 $x846)))
 (let (($x849 (= c_____ left-to-center)))
 (let (($x850 (and $x849 $x846)))
 (ite $x850 $x853 (ite $x848 $x853 (ite $x845 $x857 (ite $x843 $x866 (ite $x840 $x860 $x866))))))))))))))))))))))))))))))))
(assert
 (let ((?x502 (right s_____)))
 (let ((?x640 (right s______)))
 (let (($x862 (= ?x640 ?x502)))
 (let ((?x832 (rest ?x502)))
 (let (($x859 (= ?x640 ?x832)))
 (let (($x836 ((_ is stack ) ?x502)))
 (let (($x837 (= c_____ right-to-center)))
 (let (($x838 (and $x837 $x836)))
 (let (($x839 (= c_____ right-to-left)))
 (let (($x840 (and $x839 $x836)))
 (let ((?x688 (center s_____)))
 (let ((?x829 (top ?x688)))
 (let ((?x831 (stack ?x829 ?x502)))
 (let (($x858 (= ?x640 ?x831)))
 (let (($x841 ((_ is stack ) ?x688)))
 (let (($x842 (= c_____ center-to-right)))
 (let (($x843 (and $x842 $x841)))
 (let (($x844 (= c_____ center-to-left)))
 (let (($x845 (and $x844 $x841)))
 (let ((?x468 (left s_____)))
 (let (($x846 ((_ is stack ) ?x468)))
 (let (($x847 (= c_____ left-to-right)))
 (let (($x848 (and $x847 $x846)))
 (let (($x879 (ite $x848 $x862 (ite $x845 $x862 (ite $x843 $x858 (ite $x840 $x859 (ite $x838 $x859 $x862)))))))
 (let ((?x686 (top ?x468)))
 (let ((?x825 (stack ?x686 ?x502)))
 (let (($x854 (= ?x640 ?x825)))
 (let (($x849 (= c_____ left-to-center)))
 (let (($x850 (and $x849 $x846)))
 (ite $x850 $x854 $x879)))))))))))))))))))))))))))))))
(assert
 (let ((?x688 (center s_____)))
 (let ((?x826 (center s______)))
 (let (($x864 (= ?x826 ?x688)))
 (let ((?x502 (right s_____)))
 (let ((?x833 (top ?x502)))
 (let ((?x835 (stack ?x833 ?x688)))
 (let (($x861 (= ?x826 ?x835)))
 (let (($x836 ((_ is stack ) ?x502)))
 (let (($x837 (= c_____ right-to-center)))
 (let (($x838 (and $x837 $x836)))
 (let (($x839 (= c_____ right-to-left)))
 (let (($x840 (and $x839 $x836)))
 (let ((?x828 (rest ?x688)))
 (let (($x856 (= ?x826 ?x828)))
 (let (($x841 ((_ is stack ) ?x688)))
 (let (($x842 (= c_____ center-to-right)))
 (let (($x843 (and $x842 $x841)))
 (let (($x844 (= c_____ center-to-left)))
 (let (($x845 (and $x844 $x841)))
 (let ((?x468 (left s_____)))
 (let ((?x686 (top ?x468)))
 (let ((?x827 (stack ?x686 ?x688)))
 (let (($x855 (= ?x826 ?x827)))
 (let (($x846 ((_ is stack ) ?x468)))
 (let (($x847 (= c_____ left-to-right)))
 (let (($x848 (and $x847 $x846)))
 (let (($x878 (ite $x848 $x855 (ite $x845 $x856 (ite $x843 $x856 (ite $x840 $x864 (ite $x838 $x861 $x864)))))))
 (let (($x849 (= c_____ left-to-center)))
 (let (($x850 (and $x849 $x846)))
 (ite $x850 $x864 $x878)))))))))))))))))))))))))))))))
(assert
 (= c_______ c!6))
(assert
 (let ((?x606 (left s______)))
 (let ((?x744 (left s_______)))
 (let (($x1004 (= ?x744 ?x606)))
 (let ((?x640 (right s______)))
 (let ((?x971 (top ?x640)))
 (let ((?x972 (stack ?x971 ?x606)))
 (let (($x998 (= ?x744 ?x972)))
 (let (($x974 ((_ is stack ) ?x640)))
 (let (($x977 (= c______ right-to-left)))
 (let (($x978 (and $x977 $x974)))
 (let ((?x826 (center s______)))
 (let (($x979 ((_ is stack ) ?x826)))
 (let (($x980 (= c______ center-to-right)))
 (let (($x981 (and $x980 $x979)))
 (let ((?x967 (top ?x826)))
 (let ((?x968 (stack ?x967 ?x606)))
 (let (($x995 (= ?x744 ?x968)))
 (let (($x982 (= c______ center-to-left)))
 (let (($x983 (and $x982 $x979)))
 (let ((?x777 (rest ?x606)))
 (let (($x991 (= ?x744 ?x777)))
 (let (($x984 ((_ is stack ) ?x606)))
 (let (($x985 (= c______ left-to-right)))
 (let (($x986 (and $x985 $x984)))
 (let (($x987 (= c______ left-to-center)))
 (let (($x988 (and $x987 $x984)))
 (ite $x988 $x991 (ite $x986 $x991 (ite $x983 $x995 (ite $x981 $x1004 (ite $x978 $x998 $x1004))))))))))))))))))))))))))))))))
(assert
 (let ((?x640 (right s______)))
 (let ((?x778 (right s_______)))
 (let (($x1000 (= ?x778 ?x640)))
 (let ((?x970 (rest ?x640)))
 (let (($x997 (= ?x778 ?x970)))
 (let (($x974 ((_ is stack ) ?x640)))
 (let (($x975 (= c______ right-to-center)))
 (let (($x976 (and $x975 $x974)))
 (let (($x977 (= c______ right-to-left)))
 (let (($x978 (and $x977 $x974)))
 (let ((?x826 (center s______)))
 (let ((?x967 (top ?x826)))
 (let ((?x969 (stack ?x967 ?x640)))
 (let (($x996 (= ?x778 ?x969)))
 (let (($x979 ((_ is stack ) ?x826)))
 (let (($x980 (= c______ center-to-right)))
 (let (($x981 (and $x980 $x979)))
 (let (($x982 (= c______ center-to-left)))
 (let (($x983 (and $x982 $x979)))
 (let ((?x606 (left s______)))
 (let (($x984 ((_ is stack ) ?x606)))
 (let (($x985 (= c______ left-to-right)))
 (let (($x986 (and $x985 $x984)))
 (let (($x1017 (ite $x986 $x1000 (ite $x983 $x1000 (ite $x981 $x996 (ite $x978 $x997 (ite $x976 $x997 $x1000)))))))
 (let ((?x824 (top ?x606)))
 (let ((?x963 (stack ?x824 ?x640)))
 (let (($x992 (= ?x778 ?x963)))
 (let (($x987 (= c______ left-to-center)))
 (let (($x988 (and $x987 $x984)))
 (ite $x988 $x992 $x1017)))))))))))))))))))))))))))))))
(assert
 (let ((?x826 (center s______)))
 (let ((?x964 (center s_______)))
 (let (($x1002 (= ?x964 ?x826)))
 (let ((?x640 (right s______)))
 (let ((?x971 (top ?x640)))
 (let ((?x973 (stack ?x971 ?x826)))
 (let (($x999 (= ?x964 ?x973)))
 (let (($x974 ((_ is stack ) ?x640)))
 (let (($x975 (= c______ right-to-center)))
 (let (($x976 (and $x975 $x974)))
 (let (($x977 (= c______ right-to-left)))
 (let (($x978 (and $x977 $x974)))
 (let ((?x966 (rest ?x826)))
 (let (($x994 (= ?x964 ?x966)))
 (let (($x979 ((_ is stack ) ?x826)))
 (let (($x980 (= c______ center-to-right)))
 (let (($x981 (and $x980 $x979)))
 (let (($x982 (= c______ center-to-left)))
 (let (($x983 (and $x982 $x979)))
 (let ((?x606 (left s______)))
 (let ((?x824 (top ?x606)))
 (let ((?x965 (stack ?x824 ?x826)))
 (let (($x993 (= ?x964 ?x965)))
 (let (($x984 ((_ is stack ) ?x606)))
 (let (($x985 (= c______ left-to-right)))
 (let (($x986 (and $x985 $x984)))
 (let (($x1016 (ite $x986 $x993 (ite $x983 $x994 (ite $x981 $x994 (ite $x978 $x1002 (ite $x976 $x999 $x1002)))))))
 (let (($x987 (= c______ left-to-center)))
 (let (($x988 (and $x987 $x984)))
 (ite $x988 $x1002 $x1016)))))))))))))))))))))))))))))))
(assert
 (= c________ c!7))
(assert
 (let ((?x744 (left s_______)))
 (let ((?x882 (left s________)))
 (let (($x1142 (= ?x882 ?x744)))
 (let ((?x778 (right s_______)))
 (let ((?x1109 (top ?x778)))
 (let ((?x1110 (stack ?x1109 ?x744)))
 (let (($x1136 (= ?x882 ?x1110)))
 (let (($x1112 ((_ is stack ) ?x778)))
 (let (($x1115 (= c_______ right-to-left)))
 (let (($x1116 (and $x1115 $x1112)))
 (let ((?x964 (center s_______)))
 (let (($x1117 ((_ is stack ) ?x964)))
 (let (($x1118 (= c_______ center-to-right)))
 (let (($x1119 (and $x1118 $x1117)))
 (let ((?x1105 (top ?x964)))
 (let ((?x1106 (stack ?x1105 ?x744)))
 (let (($x1133 (= ?x882 ?x1106)))
 (let (($x1120 (= c_______ center-to-left)))
 (let (($x1121 (and $x1120 $x1117)))
 (let ((?x915 (rest ?x744)))
 (let (($x1129 (= ?x882 ?x915)))
 (let (($x1122 ((_ is stack ) ?x744)))
 (let (($x1123 (= c_______ left-to-right)))
 (let (($x1124 (and $x1123 $x1122)))
 (let (($x1125 (= c_______ left-to-center)))
 (let (($x1126 (and $x1125 $x1122)))
 (ite $x1126 $x1129 (ite $x1124 $x1129 (ite $x1121 $x1133 (ite $x1119 $x1142 (ite $x1116 $x1136 $x1142))))))))))))))))))))))))))))))))
(assert
 (let ((?x778 (right s_______)))
 (let ((?x916 (right s________)))
 (let (($x1138 (= ?x916 ?x778)))
 (let ((?x1108 (rest ?x778)))
 (let (($x1135 (= ?x916 ?x1108)))
 (let (($x1112 ((_ is stack ) ?x778)))
 (let (($x1113 (= c_______ right-to-center)))
 (let (($x1114 (and $x1113 $x1112)))
 (let (($x1115 (= c_______ right-to-left)))
 (let (($x1116 (and $x1115 $x1112)))
 (let ((?x964 (center s_______)))
 (let ((?x1105 (top ?x964)))
 (let ((?x1107 (stack ?x1105 ?x778)))
 (let (($x1134 (= ?x916 ?x1107)))
 (let (($x1117 ((_ is stack ) ?x964)))
 (let (($x1118 (= c_______ center-to-right)))
 (let (($x1119 (and $x1118 $x1117)))
 (let (($x1120 (= c_______ center-to-left)))
 (let (($x1121 (and $x1120 $x1117)))
 (let ((?x744 (left s_______)))
 (let (($x1122 ((_ is stack ) ?x744)))
 (let (($x1123 (= c_______ left-to-right)))
 (let (($x1124 (and $x1123 $x1122)))
 (let (($x1155 (ite $x1124 $x1138 (ite $x1121 $x1138 (ite $x1119 $x1134 (ite $x1116 $x1135 (ite $x1114 $x1135 $x1138)))))))
 (let ((?x962 (top ?x744)))
 (let ((?x1101 (stack ?x962 ?x778)))
 (let (($x1130 (= ?x916 ?x1101)))
 (let (($x1125 (= c_______ left-to-center)))
 (let (($x1126 (and $x1125 $x1122)))
 (ite $x1126 $x1130 $x1155)))))))))))))))))))))))))))))))
(assert
 (let ((?x964 (center s_______)))
 (let ((?x1102 (center s________)))
 (let (($x1140 (= ?x1102 ?x964)))
 (let ((?x778 (right s_______)))
 (let ((?x1109 (top ?x778)))
 (let ((?x1111 (stack ?x1109 ?x964)))
 (let (($x1137 (= ?x1102 ?x1111)))
 (let (($x1112 ((_ is stack ) ?x778)))
 (let (($x1113 (= c_______ right-to-center)))
 (let (($x1114 (and $x1113 $x1112)))
 (let (($x1115 (= c_______ right-to-left)))
 (let (($x1116 (and $x1115 $x1112)))
 (let ((?x1104 (rest ?x964)))
 (let (($x1132 (= ?x1102 ?x1104)))
 (let (($x1117 ((_ is stack ) ?x964)))
 (let (($x1118 (= c_______ center-to-right)))
 (let (($x1119 (and $x1118 $x1117)))
 (let (($x1120 (= c_______ center-to-left)))
 (let (($x1121 (and $x1120 $x1117)))
 (let ((?x744 (left s_______)))
 (let ((?x962 (top ?x744)))
 (let ((?x1103 (stack ?x962 ?x964)))
 (let (($x1131 (= ?x1102 ?x1103)))
 (let (($x1122 ((_ is stack ) ?x744)))
 (let (($x1123 (= c_______ left-to-right)))
 (let (($x1124 (and $x1123 $x1122)))
 (let (($x1154 (ite $x1124 $x1131 (ite $x1121 $x1132 (ite $x1119 $x1132 (ite $x1116 $x1140 (ite $x1114 $x1137 $x1140)))))))
 (let (($x1125 (= c_______ left-to-center)))
 (let (($x1126 (and $x1125 $x1122)))
 (ite $x1126 $x1140 $x1154)))))))))))))))))))))))))))))))
(assert
 (= c_________ c!8))
(assert
 (let ((?x882 (left s________)))
 (let ((?x1020 (left s_________)))
 (let (($x1280 (= ?x1020 ?x882)))
 (let ((?x916 (right s________)))
 (let ((?x1247 (top ?x916)))
 (let ((?x1248 (stack ?x1247 ?x882)))
 (let (($x1274 (= ?x1020 ?x1248)))
 (let (($x1250 ((_ is stack ) ?x916)))
 (let (($x1253 (= c________ right-to-left)))
 (let (($x1254 (and $x1253 $x1250)))
 (let ((?x1102 (center s________)))
 (let (($x1255 ((_ is stack ) ?x1102)))
 (let (($x1256 (= c________ center-to-right)))
 (let (($x1257 (and $x1256 $x1255)))
 (let ((?x1243 (top ?x1102)))
 (let ((?x1244 (stack ?x1243 ?x882)))
 (let (($x1271 (= ?x1020 ?x1244)))
 (let (($x1258 (= c________ center-to-left)))
 (let (($x1259 (and $x1258 $x1255)))
 (let ((?x1053 (rest ?x882)))
 (let (($x1267 (= ?x1020 ?x1053)))
 (let (($x1260 ((_ is stack ) ?x882)))
 (let (($x1261 (= c________ left-to-right)))
 (let (($x1262 (and $x1261 $x1260)))
 (let (($x1263 (= c________ left-to-center)))
 (let (($x1264 (and $x1263 $x1260)))
 (ite $x1264 $x1267 (ite $x1262 $x1267 (ite $x1259 $x1271 (ite $x1257 $x1280 (ite $x1254 $x1274 $x1280))))))))))))))))))))))))))))))))
(assert
 (let ((?x916 (right s________)))
 (let ((?x1054 (right s_________)))
 (let (($x1276 (= ?x1054 ?x916)))
 (let ((?x1246 (rest ?x916)))
 (let (($x1273 (= ?x1054 ?x1246)))
 (let (($x1250 ((_ is stack ) ?x916)))
 (let (($x1251 (= c________ right-to-center)))
 (let (($x1252 (and $x1251 $x1250)))
 (let (($x1253 (= c________ right-to-left)))
 (let (($x1254 (and $x1253 $x1250)))
 (let ((?x1102 (center s________)))
 (let ((?x1243 (top ?x1102)))
 (let ((?x1245 (stack ?x1243 ?x916)))
 (let (($x1272 (= ?x1054 ?x1245)))
 (let (($x1255 ((_ is stack ) ?x1102)))
 (let (($x1256 (= c________ center-to-right)))
 (let (($x1257 (and $x1256 $x1255)))
 (let (($x1258 (= c________ center-to-left)))
 (let (($x1259 (and $x1258 $x1255)))
 (let ((?x882 (left s________)))
 (let (($x1260 ((_ is stack ) ?x882)))
 (let (($x1261 (= c________ left-to-right)))
 (let (($x1262 (and $x1261 $x1260)))
 (let (($x1293 (ite $x1262 $x1276 (ite $x1259 $x1276 (ite $x1257 $x1272 (ite $x1254 $x1273 (ite $x1252 $x1273 $x1276)))))))
 (let ((?x1100 (top ?x882)))
 (let ((?x1239 (stack ?x1100 ?x916)))
 (let (($x1268 (= ?x1054 ?x1239)))
 (let (($x1263 (= c________ left-to-center)))
 (let (($x1264 (and $x1263 $x1260)))
 (ite $x1264 $x1268 $x1293)))))))))))))))))))))))))))))))
(assert
 (let ((?x1102 (center s________)))
 (let ((?x1240 (center s_________)))
 (let (($x1278 (= ?x1240 ?x1102)))
 (let ((?x916 (right s________)))
 (let ((?x1247 (top ?x916)))
 (let ((?x1249 (stack ?x1247 ?x1102)))
 (let (($x1275 (= ?x1240 ?x1249)))
 (let (($x1250 ((_ is stack ) ?x916)))
 (let (($x1251 (= c________ right-to-center)))
 (let (($x1252 (and $x1251 $x1250)))
 (let (($x1253 (= c________ right-to-left)))
 (let (($x1254 (and $x1253 $x1250)))
 (let ((?x1242 (rest ?x1102)))
 (let (($x1270 (= ?x1240 ?x1242)))
 (let (($x1255 ((_ is stack ) ?x1102)))
 (let (($x1256 (= c________ center-to-right)))
 (let (($x1257 (and $x1256 $x1255)))
 (let (($x1258 (= c________ center-to-left)))
 (let (($x1259 (and $x1258 $x1255)))
 (let ((?x882 (left s________)))
 (let ((?x1100 (top ?x882)))
 (let ((?x1241 (stack ?x1100 ?x1102)))
 (let (($x1269 (= ?x1240 ?x1241)))
 (let (($x1260 ((_ is stack ) ?x882)))
 (let (($x1261 (= c________ left-to-right)))
 (let (($x1262 (and $x1261 $x1260)))
 (let (($x1292 (ite $x1262 $x1269 (ite $x1259 $x1270 (ite $x1257 $x1270 (ite $x1254 $x1278 (ite $x1252 $x1275 $x1278)))))))
 (let (($x1263 (= c________ left-to-center)))
 (let (($x1264 (and $x1263 $x1260)))
 (ite $x1264 $x1278 $x1292)))))))))))))))))))))))))))))))
(assert
 (let ((?x77 (stack Q (stack G (stack D empty)))))
 (let ((?x1054 (right s_________)))
 (let (($x1296 (= ?x1054 ?x77)))
 (let ((?x64 (stack H (stack I (stack V (stack M (stack S (stack U empty))))))))
 (let ((?x70 (stack E (stack P (stack K (stack B (stack R (stack A ?x64))))))))
 (let ((?x74 (stack F (stack L (stack O (stack C ?x70))))))
 (let ((?x1240 (center s_________)))
 (let (($x1327 (= ?x1240 ?x74)))
 (let ((?x58 (stack J (stack N (stack T empty)))))
 (let ((?x1020 (left s_________)))
 (let (($x1328 (= ?x1020 ?x58)))
 (let (($x1330 (not (and $x1328 $x1327 $x1296))))
 (not $x1330))))))))))))))
(check-sat)
(exit)
